; Benchmark for LTL-sketching problem
(set-logic QF_UF)
(set-info :status unknown)
(declare-fun z_0_0 () Bool)
(declare-fun z_0_1 () Bool)
(declare-fun z_0_8 () Bool)
(declare-fun z_0_20 () Bool)
(declare-fun z_0_31 () Bool)
(declare-fun z_0_32 () Bool)
(declare-fun z_0_36 () Bool)
(declare-fun z_0_42 () Bool)
(declare-fun z_0_49 () Bool)
(declare-fun z_0_52 () Bool)
(declare-fun z_0_57 () Bool)
(declare-fun x_0_G () Bool)
(declare-fun x_0_F () Bool)
(declare-fun x_0_X () Bool)
(declare-fun x_0_! () Bool)
(declare-fun z_1_0 () Bool)
(declare-fun z_1_1 () Bool)
(declare-fun z_1_2 () Bool)
(declare-fun z_1_7 () Bool)
(declare-fun z_1_6 () Bool)
(declare-fun z_1_5 () Bool)
(declare-fun z_1_4 () Bool)
(declare-fun z_1_3 () Bool)
(declare-fun z_0_2 () Bool)
(declare-fun z_0_3 () Bool)
(declare-fun z_0_4 () Bool)
(declare-fun z_0_5 () Bool)
(declare-fun z_0_6 () Bool)
(declare-fun z_0_7 () Bool)
(declare-fun z_1_8 () Bool)
(declare-fun z_1_9 () Bool)
(declare-fun z_1_19 () Bool)
(declare-fun z_1_18 () Bool)
(declare-fun z_1_17 () Bool)
(declare-fun z_1_16 () Bool)
(declare-fun z_1_15 () Bool)
(declare-fun z_1_14 () Bool)
(declare-fun z_1_13 () Bool)
(declare-fun z_1_12 () Bool)
(declare-fun z_1_11 () Bool)
(declare-fun z_1_10 () Bool)
(declare-fun z_0_9 () Bool)
(declare-fun z_0_10 () Bool)
(declare-fun z_0_11 () Bool)
(declare-fun z_0_12 () Bool)
(declare-fun z_0_13 () Bool)
(declare-fun z_0_14 () Bool)
(declare-fun z_0_15 () Bool)
(declare-fun z_0_16 () Bool)
(declare-fun z_0_17 () Bool)
(declare-fun z_0_18 () Bool)
(declare-fun z_0_19 () Bool)
(declare-fun z_1_20 () Bool)
(declare-fun z_1_21 () Bool)
(declare-fun z_1_30 () Bool)
(declare-fun z_1_29 () Bool)
(declare-fun z_1_28 () Bool)
(declare-fun z_1_27 () Bool)
(declare-fun z_1_26 () Bool)
(declare-fun z_1_25 () Bool)
(declare-fun z_1_24 () Bool)
(declare-fun z_1_23 () Bool)
(declare-fun z_1_22 () Bool)
(declare-fun z_0_21 () Bool)
(declare-fun z_0_22 () Bool)
(declare-fun z_0_23 () Bool)
(declare-fun z_0_24 () Bool)
(declare-fun z_0_25 () Bool)
(declare-fun z_0_26 () Bool)
(declare-fun z_0_27 () Bool)
(declare-fun z_0_28 () Bool)
(declare-fun z_0_29 () Bool)
(declare-fun z_0_30 () Bool)
(declare-fun z_1_31 () Bool)
(declare-fun z_1_32 () Bool)
(declare-fun z_1_33 () Bool)
(declare-fun z_1_35 () Bool)
(declare-fun z_1_34 () Bool)
(declare-fun z_0_33 () Bool)
(declare-fun z_0_34 () Bool)
(declare-fun z_0_35 () Bool)
(declare-fun z_1_36 () Bool)
(declare-fun z_1_37 () Bool)
(declare-fun z_1_41 () Bool)
(declare-fun z_1_40 () Bool)
(declare-fun z_1_39 () Bool)
(declare-fun z_1_38 () Bool)
(declare-fun z_0_37 () Bool)
(declare-fun z_0_38 () Bool)
(declare-fun z_0_39 () Bool)
(declare-fun z_0_40 () Bool)
(declare-fun z_0_41 () Bool)
(declare-fun z_1_42 () Bool)
(declare-fun z_1_43 () Bool)
(declare-fun z_1_48 () Bool)
(declare-fun z_1_47 () Bool)
(declare-fun z_1_46 () Bool)
(declare-fun z_1_45 () Bool)
(declare-fun z_1_44 () Bool)
(declare-fun z_0_43 () Bool)
(declare-fun z_0_44 () Bool)
(declare-fun z_0_45 () Bool)
(declare-fun z_0_46 () Bool)
(declare-fun z_0_47 () Bool)
(declare-fun z_0_48 () Bool)
(declare-fun z_1_49 () Bool)
(declare-fun z_1_50 () Bool)
(declare-fun z_1_51 () Bool)
(declare-fun z_0_50 () Bool)
(declare-fun z_0_51 () Bool)
(declare-fun z_1_52 () Bool)
(declare-fun z_1_53 () Bool)
(declare-fun z_1_56 () Bool)
(declare-fun z_1_55 () Bool)
(declare-fun z_1_54 () Bool)
(declare-fun z_0_53 () Bool)
(declare-fun z_0_54 () Bool)
(declare-fun z_0_55 () Bool)
(declare-fun z_0_56 () Bool)
(declare-fun z_1_57 () Bool)
(declare-fun z_1_58 () Bool)
(declare-fun z_1_67 () Bool)
(declare-fun z_1_66 () Bool)
(declare-fun z_1_65 () Bool)
(declare-fun z_1_64 () Bool)
(declare-fun z_1_63 () Bool)
(declare-fun z_1_62 () Bool)
(declare-fun z_1_61 () Bool)
(declare-fun z_1_60 () Bool)
(declare-fun z_1_59 () Bool)
(declare-fun z_0_58 () Bool)
(declare-fun z_0_59 () Bool)
(declare-fun z_0_60 () Bool)
(declare-fun z_0_61 () Bool)
(declare-fun z_0_62 () Bool)
(declare-fun z_0_63 () Bool)
(declare-fun z_0_64 () Bool)
(declare-fun z_0_65 () Bool)
(declare-fun z_0_66 () Bool)
(declare-fun z_0_67 () Bool)
(declare-fun z_3_0 () Bool)
(declare-fun z_3_1 () Bool)
(declare-fun z_3_2 () Bool)
(declare-fun z_3_3 () Bool)
(declare-fun z_3_4 () Bool)
(declare-fun z_3_5 () Bool)
(declare-fun z_3_6 () Bool)
(declare-fun z_3_7 () Bool)
(declare-fun z_3_8 () Bool)
(declare-fun z_3_9 () Bool)
(declare-fun z_3_10 () Bool)
(declare-fun z_3_11 () Bool)
(declare-fun z_3_12 () Bool)
(declare-fun z_3_13 () Bool)
(declare-fun z_3_14 () Bool)
(declare-fun z_3_15 () Bool)
(declare-fun z_3_16 () Bool)
(declare-fun z_3_17 () Bool)
(declare-fun z_3_18 () Bool)
(declare-fun z_3_19 () Bool)
(declare-fun z_3_20 () Bool)
(declare-fun z_3_21 () Bool)
(declare-fun z_3_22 () Bool)
(declare-fun z_3_23 () Bool)
(declare-fun z_3_24 () Bool)
(declare-fun z_3_25 () Bool)
(declare-fun z_3_26 () Bool)
(declare-fun z_3_27 () Bool)
(declare-fun z_3_28 () Bool)
(declare-fun z_3_29 () Bool)
(declare-fun z_3_30 () Bool)
(declare-fun z_3_31 () Bool)
(declare-fun z_3_32 () Bool)
(declare-fun z_3_33 () Bool)
(declare-fun z_3_34 () Bool)
(declare-fun z_3_35 () Bool)
(declare-fun z_3_36 () Bool)
(declare-fun z_3_37 () Bool)
(declare-fun z_3_38 () Bool)
(declare-fun z_3_39 () Bool)
(declare-fun z_3_40 () Bool)
(declare-fun z_3_41 () Bool)
(declare-fun z_3_42 () Bool)
(declare-fun z_3_43 () Bool)
(declare-fun z_3_44 () Bool)
(declare-fun z_3_45 () Bool)
(declare-fun z_3_46 () Bool)
(declare-fun z_3_47 () Bool)
(declare-fun z_3_48 () Bool)
(declare-fun z_3_49 () Bool)
(declare-fun z_3_50 () Bool)
(declare-fun z_3_51 () Bool)
(declare-fun z_3_52 () Bool)
(declare-fun z_3_53 () Bool)
(declare-fun z_3_54 () Bool)
(declare-fun z_3_55 () Bool)
(declare-fun z_3_56 () Bool)
(declare-fun z_3_57 () Bool)
(declare-fun z_3_58 () Bool)
(declare-fun z_3_59 () Bool)
(declare-fun z_3_60 () Bool)
(declare-fun z_3_61 () Bool)
(declare-fun z_3_62 () Bool)
(declare-fun z_3_63 () Bool)
(declare-fun z_3_64 () Bool)
(declare-fun z_3_65 () Bool)
(declare-fun z_3_66 () Bool)
(declare-fun z_3_67 () Bool)
(declare-fun x_3_p () Bool)
(declare-fun x_3_-> () Bool)
(declare-fun x_3_U () Bool)
(declare-fun x_3_v () Bool)
(declare-fun x_3_& () Bool)
(declare-fun x_3_X () Bool)
(declare-fun x_3_! () Bool)
(declare-fun x_3_F () Bool)
(declare-fun x_3_G () Bool)
(assert
 z_0_0)
(assert
 (not z_0_1))
(assert
 (not z_0_8))
(assert
 (not z_0_20))
(assert
 (not z_0_31))
(assert
 (not z_0_32))
(assert
 (not z_0_36))
(assert
 (not z_0_42))
(assert
 (not z_0_49))
(assert
 (not z_0_52))
(assert
 (not z_0_57))
(assert
 (or x_0_! x_0_X x_0_F x_0_G))
(assert
 (let (($x15 (not x_0_G)))
 (let (($x13 (not x_0_F)))
 (let (($x19 (or $x13 $x15)))
 (let (($x11 (not x_0_X)))
 (let (($x18 (or $x11 $x15)))
 (let (($x17 (or $x11 $x13)))
 (let (($x10 (not x_0_!)))
 (let (($x16 (or $x10 $x15)))
 (let (($x14 (or $x10 $x13)))
 (let (($x12 (or $x10 $x11)))
 (and $x12 $x14 $x16 $x17 $x18 $x19))))))))))))
(assert
 (=> x_0_! (= z_0_0 (not z_1_0))))
(assert
 (let (($x47 (= z_0_0 z_1_0)))
 (=> x_0_X $x47)))
(assert
 (=> x_0_F (= z_0_0 (or z_1_0 z_0_0))))
(assert
 (let (($x57 (= z_0_0 (and z_1_0 z_0_0))))
 (=> x_0_G $x57)))
(assert
 (=> x_0_! (= z_0_1 (not z_1_1))))
(assert
 (let (($x69 (= z_0_1 z_1_2)))
 (=> x_0_X $x69)))
(assert
 (let (($x78 (= z_0_1 (or z_1_1 z_1_2 z_1_3 z_1_4 z_1_5 z_1_6 z_1_7))))
 (=> x_0_F $x78)))
(assert
 (let (($x82 (= z_0_1 (and z_1_1 z_1_2 z_1_3 z_1_4 z_1_5 z_1_6 z_1_7))))
 (=> x_0_G $x82)))
(assert
 (=> x_0_! (= z_0_2 (not z_1_2))))
(assert
 (let (($x92 (= z_0_2 z_1_3)))
 (=> x_0_X $x92)))
(assert
 (let (($x96 (= z_0_2 (or z_1_2 z_1_3 z_1_4 z_1_5 z_1_6 z_1_7))))
 (=> x_0_F $x96)))
(assert
 (let (($x100 (= z_0_2 (and z_1_2 z_1_3 z_1_4 z_1_5 z_1_6 z_1_7))))
 (=> x_0_G $x100)))
(assert
 (=> x_0_! (= z_0_3 (not z_1_3))))
(assert
 (let (($x110 (= z_0_3 z_1_4)))
 (=> x_0_X $x110)))
(assert
 (let (($x113 (or z_1_3 z_1_4 z_1_5 z_1_6 z_1_7)))
 (let (($x114 (= z_0_3 $x113)))
 (=> x_0_F $x114))))
(assert
 (let (($x118 (= z_0_3 (and z_1_3 z_1_4 z_1_5 z_1_6 z_1_7))))
 (=> x_0_G $x118)))
(assert
 (=> x_0_! (= z_0_4 (not z_1_4))))
(assert
 (let (($x128 (= z_0_4 z_1_5)))
 (=> x_0_X $x128)))
(assert
 (=> x_0_F (= z_0_4 (or z_1_4 z_1_5 z_1_6 z_1_7 z_1_3))))
(assert
 (let (($x137 (= z_0_4 (and z_1_4 z_1_5 z_1_6 z_1_7 z_1_3))))
 (=> x_0_G $x137)))
(assert
 (=> x_0_! (= z_0_5 (not z_1_5))))
(assert
 (let (($x147 (= z_0_5 z_1_6)))
 (=> x_0_X $x147)))
(assert
 (=> x_0_F (= z_0_5 (or z_1_5 z_1_6 z_1_7 z_1_3 z_1_4))))
(assert
 (let (($x156 (= z_0_5 (and z_1_5 z_1_6 z_1_7 z_1_3 z_1_4))))
 (=> x_0_G $x156)))
(assert
 (=> x_0_! (= z_0_6 (not z_1_6))))
(assert
 (let (($x166 (= z_0_6 z_1_7)))
 (=> x_0_X $x166)))
(assert
 (=> x_0_F (= z_0_6 (or z_1_6 z_1_7 z_1_3 z_1_4 z_1_5))))
(assert
 (let (($x175 (= z_0_6 (and z_1_6 z_1_7 z_1_3 z_1_4 z_1_5))))
 (=> x_0_G $x175)))
(assert
 (=> x_0_! (= z_0_7 (not z_1_7))))
(assert
 (let (($x185 (= z_0_7 z_1_3)))
 (=> x_0_X $x185)))
(assert
 (let (($x189 (= z_0_7 (or z_1_7 z_0_3))))
 (=> x_0_F $x189)))
(assert
 (let (($x193 (= z_0_7 (and z_1_7 z_0_3))))
 (=> x_0_G $x193)))
(assert
 (=> x_0_! (= z_0_8 (not z_1_8))))
(assert
 (let (($x205 (= z_0_8 z_1_9)))
 (=> x_0_X $x205)))
(assert
 (let (($x218 (or z_1_8 z_1_9 z_1_10 z_1_11 z_1_12 z_1_13 z_1_14 z_1_15 z_1_16 z_1_17 z_1_18 z_1_19)))
 (let (($x219 (= z_0_8 $x218)))
 (=> x_0_F $x219))))
(assert
 (let (($x222 (and z_1_8 z_1_9 z_1_10 z_1_11 z_1_12 z_1_13 z_1_14 z_1_15 z_1_16 z_1_17 z_1_18 z_1_19)))
 (let (($x223 (= z_0_8 $x222)))
 (=> x_0_G $x223))))
(assert
 (=> x_0_! (= z_0_9 (not z_1_9))))
(assert
 (let (($x233 (= z_0_9 z_1_10)))
 (=> x_0_X $x233)))
(assert
 (let (($x236 (or z_1_9 z_1_10 z_1_11 z_1_12 z_1_13 z_1_14 z_1_15 z_1_16 z_1_17 z_1_18 z_1_19)))
 (let (($x237 (= z_0_9 $x236)))
 (=> x_0_F $x237))))
(assert
 (let (($x240 (and z_1_9 z_1_10 z_1_11 z_1_12 z_1_13 z_1_14 z_1_15 z_1_16 z_1_17 z_1_18 z_1_19)))
 (let (($x241 (= z_0_9 $x240)))
 (=> x_0_G $x241))))
(assert
 (=> x_0_! (= z_0_10 (not z_1_10))))
(assert
 (let (($x251 (= z_0_10 z_1_11)))
 (=> x_0_X $x251)))
(assert
 (let (($x254 (or z_1_10 z_1_11 z_1_12 z_1_13 z_1_14 z_1_15 z_1_16 z_1_17 z_1_18 z_1_19)))
 (let (($x255 (= z_0_10 $x254)))
 (=> x_0_F $x255))))
(assert
 (let (($x258 (and z_1_10 z_1_11 z_1_12 z_1_13 z_1_14 z_1_15 z_1_16 z_1_17 z_1_18 z_1_19)))
 (let (($x259 (= z_0_10 $x258)))
 (=> x_0_G $x259))))
(assert
 (=> x_0_! (= z_0_11 (not z_1_11))))
(assert
 (let (($x269 (= z_0_11 z_1_12)))
 (=> x_0_X $x269)))
(assert
 (let (($x272 (or z_1_11 z_1_12 z_1_13 z_1_14 z_1_15 z_1_16 z_1_17 z_1_18 z_1_19)))
 (let (($x273 (= z_0_11 $x272)))
 (=> x_0_F $x273))))
(assert
 (let (($x276 (and z_1_11 z_1_12 z_1_13 z_1_14 z_1_15 z_1_16 z_1_17 z_1_18 z_1_19)))
 (let (($x277 (= z_0_11 $x276)))
 (=> x_0_G $x277))))
(assert
 (=> x_0_! (= z_0_12 (not z_1_12))))
(assert
 (let (($x287 (= z_0_12 z_1_13)))
 (=> x_0_X $x287)))
(assert
 (let (($x290 (or z_1_12 z_1_13 z_1_14 z_1_15 z_1_16 z_1_17 z_1_18 z_1_19)))
 (let (($x291 (= z_0_12 $x290)))
 (=> x_0_F $x291))))
(assert
 (let (($x294 (and z_1_12 z_1_13 z_1_14 z_1_15 z_1_16 z_1_17 z_1_18 z_1_19)))
 (let (($x295 (= z_0_12 $x294)))
 (=> x_0_G $x295))))
(assert
 (=> x_0_! (= z_0_13 (not z_1_13))))
(assert
 (let (($x305 (= z_0_13 z_1_14)))
 (=> x_0_X $x305)))
(assert
 (let (($x309 (= z_0_13 (or z_1_13 z_1_14 z_1_15 z_1_16 z_1_17 z_1_18 z_1_19))))
 (=> x_0_F $x309)))
(assert
 (let (($x313 (= z_0_13 (and z_1_13 z_1_14 z_1_15 z_1_16 z_1_17 z_1_18 z_1_19))))
 (=> x_0_G $x313)))
(assert
 (=> x_0_! (= z_0_14 (not z_1_14))))
(assert
 (let (($x323 (= z_0_14 z_1_15)))
 (=> x_0_X $x323)))
(assert
 (let (($x326 (or z_1_14 z_1_15 z_1_16 z_1_17 z_1_18 z_1_19)))
 (let (($x327 (= z_0_14 $x326)))
 (=> x_0_F $x327))))
(assert
 (let (($x331 (= z_0_14 (and z_1_14 z_1_15 z_1_16 z_1_17 z_1_18 z_1_19))))
 (=> x_0_G $x331)))
(assert
 (=> x_0_! (= z_0_15 (not z_1_15))))
(assert
 (let (($x341 (= z_0_15 z_1_16)))
 (=> x_0_X $x341)))
(assert
 (=> x_0_F (= z_0_15 (or z_1_15 z_1_16 z_1_17 z_1_18 z_1_19 z_1_14))))
(assert
 (let (($x350 (= z_0_15 (and z_1_15 z_1_16 z_1_17 z_1_18 z_1_19 z_1_14))))
 (=> x_0_G $x350)))
(assert
 (=> x_0_! (= z_0_16 (not z_1_16))))
(assert
 (let (($x360 (= z_0_16 z_1_17)))
 (=> x_0_X $x360)))
(assert
 (=> x_0_F (= z_0_16 (or z_1_16 z_1_17 z_1_18 z_1_19 z_1_14 z_1_15))))
(assert
 (let (($x369 (= z_0_16 (and z_1_16 z_1_17 z_1_18 z_1_19 z_1_14 z_1_15))))
 (=> x_0_G $x369)))
(assert
 (=> x_0_! (= z_0_17 (not z_1_17))))
(assert
 (let (($x379 (= z_0_17 z_1_18)))
 (=> x_0_X $x379)))
(assert
 (=> x_0_F (= z_0_17 (or z_1_17 z_1_18 z_1_19 z_1_14 z_1_15 z_1_16))))
(assert
 (let (($x388 (= z_0_17 (and z_1_17 z_1_18 z_1_19 z_1_14 z_1_15 z_1_16))))
 (=> x_0_G $x388)))
(assert
 (=> x_0_! (= z_0_18 (not z_1_18))))
(assert
 (let (($x398 (= z_0_18 z_1_19)))
 (=> x_0_X $x398)))
(assert
 (=> x_0_F (= z_0_18 (or z_1_18 z_1_19 z_1_14 z_1_15 z_1_16 z_1_17))))
(assert
 (let (($x407 (= z_0_18 (and z_1_18 z_1_19 z_1_14 z_1_15 z_1_16 z_1_17))))
 (=> x_0_G $x407)))
(assert
 (=> x_0_! (= z_0_19 (not z_1_19))))
(assert
 (let (($x417 (= z_0_19 z_1_14)))
 (=> x_0_X $x417)))
(assert
 (let (($x421 (= z_0_19 (or z_1_19 z_0_14))))
 (=> x_0_F $x421)))
(assert
 (let (($x425 (= z_0_19 (and z_1_19 z_0_14))))
 (=> x_0_G $x425)))
(assert
 (=> x_0_! (= z_0_20 (not z_1_20))))
(assert
 (let (($x437 (= z_0_20 z_1_21)))
 (=> x_0_X $x437)))
(assert
 (let (($x449 (or z_1_20 z_1_21 z_1_22 z_1_23 z_1_24 z_1_25 z_1_26 z_1_27 z_1_28 z_1_29 z_1_30)))
 (let (($x450 (= z_0_20 $x449)))
 (=> x_0_F $x450))))
(assert
 (let (($x453 (and z_1_20 z_1_21 z_1_22 z_1_23 z_1_24 z_1_25 z_1_26 z_1_27 z_1_28 z_1_29 z_1_30)))
 (let (($x454 (= z_0_20 $x453)))
 (=> x_0_G $x454))))
(assert
 (=> x_0_! (= z_0_21 (not z_1_21))))
(assert
 (let (($x464 (= z_0_21 z_1_22)))
 (=> x_0_X $x464)))
(assert
 (let (($x467 (or z_1_21 z_1_22 z_1_23 z_1_24 z_1_25 z_1_26 z_1_27 z_1_28 z_1_29 z_1_30)))
 (let (($x468 (= z_0_21 $x467)))
 (=> x_0_F $x468))))
(assert
 (let (($x471 (and z_1_21 z_1_22 z_1_23 z_1_24 z_1_25 z_1_26 z_1_27 z_1_28 z_1_29 z_1_30)))
 (let (($x472 (= z_0_21 $x471)))
 (=> x_0_G $x472))))
(assert
 (=> x_0_! (= z_0_22 (not z_1_22))))
(assert
 (let (($x482 (= z_0_22 z_1_23)))
 (=> x_0_X $x482)))
(assert
 (let (($x485 (or z_1_22 z_1_23 z_1_24 z_1_25 z_1_26 z_1_27 z_1_28 z_1_29 z_1_30)))
 (let (($x486 (= z_0_22 $x485)))
 (=> x_0_F $x486))))
(assert
 (let (($x489 (and z_1_22 z_1_23 z_1_24 z_1_25 z_1_26 z_1_27 z_1_28 z_1_29 z_1_30)))
 (let (($x490 (= z_0_22 $x489)))
 (=> x_0_G $x490))))
(assert
 (=> x_0_! (= z_0_23 (not z_1_23))))
(assert
 (let (($x500 (= z_0_23 z_1_24)))
 (=> x_0_X $x500)))
(assert
 (let (($x503 (or z_1_23 z_1_24 z_1_25 z_1_26 z_1_27 z_1_28 z_1_29 z_1_30)))
 (let (($x504 (= z_0_23 $x503)))
 (=> x_0_F $x504))))
(assert
 (let (($x507 (and z_1_23 z_1_24 z_1_25 z_1_26 z_1_27 z_1_28 z_1_29 z_1_30)))
 (let (($x508 (= z_0_23 $x507)))
 (=> x_0_G $x508))))
(assert
 (=> x_0_! (= z_0_24 (not z_1_24))))
(assert
 (let (($x518 (= z_0_24 z_1_25)))
 (=> x_0_X $x518)))
(assert
 (let (($x522 (= z_0_24 (or z_1_24 z_1_25 z_1_26 z_1_27 z_1_28 z_1_29 z_1_30))))
 (=> x_0_F $x522)))
(assert
 (let (($x526 (= z_0_24 (and z_1_24 z_1_25 z_1_26 z_1_27 z_1_28 z_1_29 z_1_30))))
 (=> x_0_G $x526)))
(assert
 (=> x_0_! (= z_0_25 (not z_1_25))))
(assert
 (let (($x536 (= z_0_25 z_1_26)))
 (=> x_0_X $x536)))
(assert
 (let (($x540 (= z_0_25 (or z_1_25 z_1_26 z_1_27 z_1_28 z_1_29 z_1_30))))
 (=> x_0_F $x540)))
(assert
 (let (($x544 (= z_0_25 (and z_1_25 z_1_26 z_1_27 z_1_28 z_1_29 z_1_30))))
 (=> x_0_G $x544)))
(assert
 (=> x_0_! (= z_0_26 (not z_1_26))))
(assert
 (let (($x554 (= z_0_26 z_1_27)))
 (=> x_0_X $x554)))
(assert
 (let (($x557 (or z_1_26 z_1_27 z_1_28 z_1_29 z_1_30)))
 (let (($x558 (= z_0_26 $x557)))
 (=> x_0_F $x558))))
(assert
 (let (($x562 (= z_0_26 (and z_1_26 z_1_27 z_1_28 z_1_29 z_1_30))))
 (=> x_0_G $x562)))
(assert
 (=> x_0_! (= z_0_27 (not z_1_27))))
(assert
 (let (($x572 (= z_0_27 z_1_28)))
 (=> x_0_X $x572)))
(assert
 (=> x_0_F (= z_0_27 (or z_1_27 z_1_28 z_1_29 z_1_30 z_1_26))))
(assert
 (let (($x581 (= z_0_27 (and z_1_27 z_1_28 z_1_29 z_1_30 z_1_26))))
 (=> x_0_G $x581)))
(assert
 (=> x_0_! (= z_0_28 (not z_1_28))))
(assert
 (let (($x591 (= z_0_28 z_1_29)))
 (=> x_0_X $x591)))
(assert
 (=> x_0_F (= z_0_28 (or z_1_28 z_1_29 z_1_30 z_1_26 z_1_27))))
(assert
 (let (($x600 (= z_0_28 (and z_1_28 z_1_29 z_1_30 z_1_26 z_1_27))))
 (=> x_0_G $x600)))
(assert
 (=> x_0_! (= z_0_29 (not z_1_29))))
(assert
 (let (($x610 (= z_0_29 z_1_30)))
 (=> x_0_X $x610)))
(assert
 (=> x_0_F (= z_0_29 (or z_1_29 z_1_30 z_1_26 z_1_27 z_1_28))))
(assert
 (let (($x619 (= z_0_29 (and z_1_29 z_1_30 z_1_26 z_1_27 z_1_28))))
 (=> x_0_G $x619)))
(assert
 (=> x_0_! (= z_0_30 (not z_1_30))))
(assert
 (let (($x629 (= z_0_30 z_1_26)))
 (=> x_0_X $x629)))
(assert
 (let (($x633 (= z_0_30 (or z_1_30 z_0_26))))
 (=> x_0_F $x633)))
(assert
 (let (($x637 (= z_0_30 (and z_1_30 z_0_26))))
 (=> x_0_G $x637)))
(assert
 (=> x_0_! (= z_0_31 (not z_1_31))))
(assert
 (let (($x648 (= z_0_31 z_1_1)))
 (=> x_0_X $x648)))
(assert
 (let (($x652 (= z_0_31 (or z_1_31 z_1_1 z_1_2 z_1_3 z_1_4 z_1_5 z_1_6 z_1_7))))
 (=> x_0_F $x652)))
(assert
 (let (($x658 (= z_0_31 (and z_1_31 z_1_1 z_1_2 z_1_3 z_1_4 z_1_5 z_1_6 z_1_7))))
 (=> x_0_G $x658)))
(assert
 (=> x_0_! (= z_0_32 (not z_1_32))))
(assert
 (let (($x670 (= z_0_32 z_1_33)))
 (=> x_0_X $x670)))
(assert
 (let (($x675 (or z_1_32 z_1_33 z_1_34 z_1_35 z_1_6 z_1_7 z_1_3 z_1_4 z_1_5)))
 (=> x_0_F (= z_0_32 $x675))))
(assert
 (let (($x681 (and z_1_32 z_1_33 z_1_34 z_1_35 z_1_6 z_1_7 z_1_3 z_1_4 z_1_5)))
 (let (($x682 (= z_0_32 $x681)))
 (=> x_0_G $x682))))
(assert
 (=> x_0_! (= z_0_33 (not z_1_33))))
(assert
 (let (($x692 (= z_0_33 z_1_34)))
 (=> x_0_X $x692)))
(assert
 (let (($x696 (= z_0_33 (or z_1_33 z_1_34 z_1_35 z_1_6 z_1_7 z_1_3 z_1_4 z_1_5))))
 (=> x_0_F $x696)))
(assert
 (let (($x701 (and z_1_33 z_1_34 z_1_35 z_1_6 z_1_7 z_1_3 z_1_4 z_1_5)))
 (let (($x702 (= z_0_33 $x701)))
 (=> x_0_G $x702))))
(assert
 (=> x_0_! (= z_0_34 (not z_1_34))))
(assert
 (let (($x712 (= z_0_34 z_1_35)))
 (=> x_0_X $x712)))
(assert
 (let (($x716 (= z_0_34 (or z_1_34 z_1_35 z_1_6 z_1_7 z_1_3 z_1_4 z_1_5))))
 (=> x_0_F $x716)))
(assert
 (let (($x722 (= z_0_34 (and z_1_34 z_1_35 z_1_6 z_1_7 z_1_3 z_1_4 z_1_5))))
 (=> x_0_G $x722)))
(assert
 (=> x_0_! (= z_0_35 (not z_1_35))))
(assert
 (let (($x732 (= z_0_35 z_1_6)))
 (=> x_0_X $x732)))
(assert
 (=> x_0_F (= z_0_35 (or z_1_35 z_1_6 z_1_7 z_1_3 z_1_4 z_1_5))))
(assert
 (let (($x742 (= z_0_35 (and z_1_35 z_1_6 z_1_7 z_1_3 z_1_4 z_1_5))))
 (=> x_0_G $x742)))
(assert
 (=> x_0_! (= z_0_36 (not z_1_36))))
(assert
 (let (($x754 (= z_0_36 z_1_37)))
 (=> x_0_X $x754)))
(assert
 (let (($x762 (= z_0_36 (or z_1_36 z_1_37 z_1_38 z_1_39 z_1_40 z_1_41))))
 (=> x_0_F $x762)))
(assert
 (let (($x766 (= z_0_36 (and z_1_36 z_1_37 z_1_38 z_1_39 z_1_40 z_1_41))))
 (=> x_0_G $x766)))
(assert
 (=> x_0_! (= z_0_37 (not z_1_37))))
(assert
 (let (($x776 (= z_0_37 z_1_38)))
 (=> x_0_X $x776)))
(assert
 (let (($x779 (or z_1_37 z_1_38 z_1_39 z_1_40 z_1_41)))
 (let (($x780 (= z_0_37 $x779)))
 (=> x_0_F $x780))))
(assert
 (let (($x784 (= z_0_37 (and z_1_37 z_1_38 z_1_39 z_1_40 z_1_41))))
 (=> x_0_G $x784)))
(assert
 (=> x_0_! (= z_0_38 (not z_1_38))))
(assert
 (let (($x794 (= z_0_38 z_1_39)))
 (=> x_0_X $x794)))
(assert
 (=> x_0_F (= z_0_38 (or z_1_38 z_1_39 z_1_40 z_1_41 z_1_37))))
(assert
 (let (($x803 (= z_0_38 (and z_1_38 z_1_39 z_1_40 z_1_41 z_1_37))))
 (=> x_0_G $x803)))
(assert
 (=> x_0_! (= z_0_39 (not z_1_39))))
(assert
 (let (($x813 (= z_0_39 z_1_40)))
 (=> x_0_X $x813)))
(assert
 (=> x_0_F (= z_0_39 (or z_1_39 z_1_40 z_1_41 z_1_37 z_1_38))))
(assert
 (let (($x822 (= z_0_39 (and z_1_39 z_1_40 z_1_41 z_1_37 z_1_38))))
 (=> x_0_G $x822)))
(assert
 (=> x_0_! (= z_0_40 (not z_1_40))))
(assert
 (let (($x832 (= z_0_40 z_1_41)))
 (=> x_0_X $x832)))
(assert
 (=> x_0_F (= z_0_40 (or z_1_40 z_1_41 z_1_37 z_1_38 z_1_39))))
(assert
 (let (($x841 (= z_0_40 (and z_1_40 z_1_41 z_1_37 z_1_38 z_1_39))))
 (=> x_0_G $x841)))
(assert
 (=> x_0_! (= z_0_41 (not z_1_41))))
(assert
 (let (($x851 (= z_0_41 z_1_37)))
 (=> x_0_X $x851)))
(assert
 (let (($x855 (= z_0_41 (or z_1_41 z_0_37))))
 (=> x_0_F $x855)))
(assert
 (let (($x859 (= z_0_41 (and z_1_41 z_0_37))))
 (=> x_0_G $x859)))
(assert
 (=> x_0_! (= z_0_42 (not z_1_42))))
(assert
 (let (($x871 (= z_0_42 z_1_43)))
 (=> x_0_X $x871)))
(assert
 (let (($x880 (= z_0_42 (or z_1_42 z_1_43 z_1_44 z_1_45 z_1_46 z_1_47 z_1_48))))
 (=> x_0_F $x880)))
(assert
 (let (($x884 (= z_0_42 (and z_1_42 z_1_43 z_1_44 z_1_45 z_1_46 z_1_47 z_1_48))))
 (=> x_0_G $x884)))
(assert
 (=> x_0_! (= z_0_43 (not z_1_43))))
(assert
 (let (($x894 (= z_0_43 z_1_44)))
 (=> x_0_X $x894)))
(assert
 (let (($x898 (= z_0_43 (or z_1_43 z_1_44 z_1_45 z_1_46 z_1_47 z_1_48))))
 (=> x_0_F $x898)))
(assert
 (let (($x902 (= z_0_43 (and z_1_43 z_1_44 z_1_45 z_1_46 z_1_47 z_1_48))))
 (=> x_0_G $x902)))
(assert
 (=> x_0_! (= z_0_44 (not z_1_44))))
(assert
 (let (($x912 (= z_0_44 z_1_45)))
 (=> x_0_X $x912)))
(assert
 (let (($x916 (= z_0_44 (or z_1_44 z_1_45 z_1_46 z_1_47 z_1_48))))
 (=> x_0_F $x916)))
(assert
 (let (($x920 (= z_0_44 (and z_1_44 z_1_45 z_1_46 z_1_47 z_1_48))))
 (=> x_0_G $x920)))
(assert
 (=> x_0_! (= z_0_45 (not z_1_45))))
(assert
 (let (($x930 (= z_0_45 z_1_46)))
 (=> x_0_X $x930)))
(assert
 (let (($x933 (or z_1_45 z_1_46 z_1_47 z_1_48)))
 (let (($x934 (= z_0_45 $x933)))
 (=> x_0_F $x934))))
(assert
 (let (($x938 (= z_0_45 (and z_1_45 z_1_46 z_1_47 z_1_48))))
 (=> x_0_G $x938)))
(assert
 (=> x_0_! (= z_0_46 (not z_1_46))))
(assert
 (let (($x948 (= z_0_46 z_1_47)))
 (=> x_0_X $x948)))
(assert
 (=> x_0_F (= z_0_46 (or z_1_46 z_1_47 z_1_48 z_1_45))))
(assert
 (let (($x957 (= z_0_46 (and z_1_46 z_1_47 z_1_48 z_1_45))))
 (=> x_0_G $x957)))
(assert
 (=> x_0_! (= z_0_47 (not z_1_47))))
(assert
 (let (($x967 (= z_0_47 z_1_48)))
 (=> x_0_X $x967)))
(assert
 (=> x_0_F (= z_0_47 (or z_1_47 z_1_48 z_1_45 z_1_46))))
(assert
 (let (($x976 (= z_0_47 (and z_1_47 z_1_48 z_1_45 z_1_46))))
 (=> x_0_G $x976)))
(assert
 (=> x_0_! (= z_0_48 (not z_1_48))))
(assert
 (let (($x986 (= z_0_48 z_1_45)))
 (=> x_0_X $x986)))
(assert
 (let (($x990 (= z_0_48 (or z_1_48 z_0_45))))
 (=> x_0_F $x990)))
(assert
 (let (($x994 (= z_0_48 (and z_1_48 z_0_45))))
 (=> x_0_G $x994)))
(assert
 (=> x_0_! (= z_0_49 (not z_1_49))))
(assert
 (let (($x1006 (= z_0_49 z_1_50)))
 (=> x_0_X $x1006)))
(assert
 (let (($x1011 (= z_0_49 (or z_1_49 z_1_50 z_1_51 z_1_46 z_1_47 z_1_48 z_1_45))))
 (=> x_0_F $x1011)))
(assert
 (let (($x1017 (= z_0_49 (and z_1_49 z_1_50 z_1_51 z_1_46 z_1_47 z_1_48 z_1_45))))
 (=> x_0_G $x1017)))
(assert
 (=> x_0_! (= z_0_50 (not z_1_50))))
(assert
 (let (($x1027 (= z_0_50 z_1_51)))
 (=> x_0_X $x1027)))
(assert
 (=> x_0_F (= z_0_50 (or z_1_50 z_1_51 z_1_46 z_1_47 z_1_48 z_1_45))))
(assert
 (let (($x1037 (= z_0_50 (and z_1_50 z_1_51 z_1_46 z_1_47 z_1_48 z_1_45))))
 (=> x_0_G $x1037)))
(assert
 (=> x_0_! (= z_0_51 (not z_1_51))))
(assert
 (let (($x1047 (= z_0_51 z_1_46)))
 (=> x_0_X $x1047)))
(assert
 (=> x_0_F (= z_0_51 (or z_1_51 z_1_46 z_1_47 z_1_48 z_1_45))))
(assert
 (let (($x1057 (= z_0_51 (and z_1_51 z_1_46 z_1_47 z_1_48 z_1_45))))
 (=> x_0_G $x1057)))
(assert
 (=> x_0_! (= z_0_52 (not z_1_52))))
(assert
 (let (($x1069 (= z_0_52 z_1_53)))
 (=> x_0_X $x1069)))
(assert
 (let (($x1075 (or z_1_52 z_1_53 z_1_54 z_1_55 z_1_56 z_1_47 z_1_48 z_1_45 z_1_46)))
 (=> x_0_F (= z_0_52 $x1075))))
(assert
 (let (($x1081 (and z_1_52 z_1_53 z_1_54 z_1_55 z_1_56 z_1_47 z_1_48 z_1_45 z_1_46)))
 (let (($x1082 (= z_0_52 $x1081)))
 (=> x_0_G $x1082))))
(assert
 (=> x_0_! (= z_0_53 (not z_1_53))))
(assert
 (let (($x1092 (= z_0_53 z_1_54)))
 (=> x_0_X $x1092)))
(assert
 (let (($x1095 (or z_1_53 z_1_54 z_1_55 z_1_56 z_1_47 z_1_48 z_1_45 z_1_46)))
 (=> x_0_F (= z_0_53 $x1095))))
(assert
 (let (($x1101 (and z_1_53 z_1_54 z_1_55 z_1_56 z_1_47 z_1_48 z_1_45 z_1_46)))
 (let (($x1102 (= z_0_53 $x1101)))
 (=> x_0_G $x1102))))
(assert
 (=> x_0_! (= z_0_54 (not z_1_54))))
(assert
 (let (($x1112 (= z_0_54 z_1_55)))
 (=> x_0_X $x1112)))
(assert
 (let (($x1116 (= z_0_54 (or z_1_54 z_1_55 z_1_56 z_1_47 z_1_48 z_1_45 z_1_46))))
 (=> x_0_F $x1116)))
(assert
 (let (($x1122 (= z_0_54 (and z_1_54 z_1_55 z_1_56 z_1_47 z_1_48 z_1_45 z_1_46))))
 (=> x_0_G $x1122)))
(assert
 (=> x_0_! (= z_0_55 (not z_1_55))))
(assert
 (let (($x1132 (= z_0_55 z_1_56)))
 (=> x_0_X $x1132)))
(assert
 (=> x_0_F (= z_0_55 (or z_1_55 z_1_56 z_1_47 z_1_48 z_1_45 z_1_46))))
(assert
 (let (($x1142 (= z_0_55 (and z_1_55 z_1_56 z_1_47 z_1_48 z_1_45 z_1_46))))
 (=> x_0_G $x1142)))
(assert
 (=> x_0_! (= z_0_56 (not z_1_56))))
(assert
 (let (($x1152 (= z_0_56 z_1_47)))
 (=> x_0_X $x1152)))
(assert
 (=> x_0_F (= z_0_56 (or z_1_56 z_1_47 z_1_48 z_1_45 z_1_46))))
(assert
 (let (($x1162 (= z_0_56 (and z_1_56 z_1_47 z_1_48 z_1_45 z_1_46))))
 (=> x_0_G $x1162)))
(assert
 (=> x_0_! (= z_0_57 (not z_1_57))))
(assert
 (let (($x1174 (= z_0_57 z_1_58)))
 (=> x_0_X $x1174)))
(assert
 (let (($x1186 (or z_1_57 z_1_58 z_1_59 z_1_60 z_1_61 z_1_62 z_1_63 z_1_64 z_1_65 z_1_66 z_1_67)))
 (let (($x1187 (= z_0_57 $x1186)))
 (=> x_0_F $x1187))))
(assert
 (let (($x1190 (and z_1_57 z_1_58 z_1_59 z_1_60 z_1_61 z_1_62 z_1_63 z_1_64 z_1_65 z_1_66 z_1_67)))
 (let (($x1191 (= z_0_57 $x1190)))
 (=> x_0_G $x1191))))
(assert
 (=> x_0_! (= z_0_58 (not z_1_58))))
(assert
 (let (($x1201 (= z_0_58 z_1_59)))
 (=> x_0_X $x1201)))
(assert
 (let (($x1204 (or z_1_58 z_1_59 z_1_60 z_1_61 z_1_62 z_1_63 z_1_64 z_1_65 z_1_66 z_1_67)))
 (let (($x1205 (= z_0_58 $x1204)))
 (=> x_0_F $x1205))))
(assert
 (let (($x1208 (and z_1_58 z_1_59 z_1_60 z_1_61 z_1_62 z_1_63 z_1_64 z_1_65 z_1_66 z_1_67)))
 (let (($x1209 (= z_0_58 $x1208)))
 (=> x_0_G $x1209))))
(assert
 (=> x_0_! (= z_0_59 (not z_1_59))))
(assert
 (let (($x1219 (= z_0_59 z_1_60)))
 (=> x_0_X $x1219)))
(assert
 (let (($x1222 (or z_1_59 z_1_60 z_1_61 z_1_62 z_1_63 z_1_64 z_1_65 z_1_66 z_1_67)))
 (let (($x1223 (= z_0_59 $x1222)))
 (=> x_0_F $x1223))))
(assert
 (let (($x1226 (and z_1_59 z_1_60 z_1_61 z_1_62 z_1_63 z_1_64 z_1_65 z_1_66 z_1_67)))
 (let (($x1227 (= z_0_59 $x1226)))
 (=> x_0_G $x1227))))
(assert
 (=> x_0_! (= z_0_60 (not z_1_60))))
(assert
 (let (($x1237 (= z_0_60 z_1_61)))
 (=> x_0_X $x1237)))
(assert
 (let (($x1240 (or z_1_60 z_1_61 z_1_62 z_1_63 z_1_64 z_1_65 z_1_66 z_1_67)))
 (let (($x1241 (= z_0_60 $x1240)))
 (=> x_0_F $x1241))))
(assert
 (let (($x1244 (and z_1_60 z_1_61 z_1_62 z_1_63 z_1_64 z_1_65 z_1_66 z_1_67)))
 (let (($x1245 (= z_0_60 $x1244)))
 (=> x_0_G $x1245))))
(assert
 (=> x_0_! (= z_0_61 (not z_1_61))))
(assert
 (let (($x1255 (= z_0_61 z_1_62)))
 (=> x_0_X $x1255)))
(assert
 (let (($x1259 (= z_0_61 (or z_1_61 z_1_62 z_1_63 z_1_64 z_1_65 z_1_66 z_1_67))))
 (=> x_0_F $x1259)))
(assert
 (let (($x1263 (= z_0_61 (and z_1_61 z_1_62 z_1_63 z_1_64 z_1_65 z_1_66 z_1_67))))
 (=> x_0_G $x1263)))
(assert
 (=> x_0_! (= z_0_62 (not z_1_62))))
(assert
 (let (($x1273 (= z_0_62 z_1_63)))
 (=> x_0_X $x1273)))
(assert
 (let (($x1276 (or z_1_62 z_1_63 z_1_64 z_1_65 z_1_66 z_1_67)))
 (let (($x1277 (= z_0_62 $x1276)))
 (=> x_0_F $x1277))))
(assert
 (let (($x1281 (= z_0_62 (and z_1_62 z_1_63 z_1_64 z_1_65 z_1_66 z_1_67))))
 (=> x_0_G $x1281)))
(assert
 (=> x_0_! (= z_0_63 (not z_1_63))))
(assert
 (let (($x1291 (= z_0_63 z_1_64)))
 (=> x_0_X $x1291)))
(assert
 (=> x_0_F (= z_0_63 (or z_1_63 z_1_64 z_1_65 z_1_66 z_1_67 z_1_62))))
(assert
 (let (($x1300 (= z_0_63 (and z_1_63 z_1_64 z_1_65 z_1_66 z_1_67 z_1_62))))
 (=> x_0_G $x1300)))
(assert
 (=> x_0_! (= z_0_64 (not z_1_64))))
(assert
 (let (($x1310 (= z_0_64 z_1_65)))
 (=> x_0_X $x1310)))
(assert
 (=> x_0_F (= z_0_64 (or z_1_64 z_1_65 z_1_66 z_1_67 z_1_62 z_1_63))))
(assert
 (let (($x1319 (= z_0_64 (and z_1_64 z_1_65 z_1_66 z_1_67 z_1_62 z_1_63))))
 (=> x_0_G $x1319)))
(assert
 (=> x_0_! (= z_0_65 (not z_1_65))))
(assert
 (let (($x1329 (= z_0_65 z_1_66)))
 (=> x_0_X $x1329)))
(assert
 (=> x_0_F (= z_0_65 (or z_1_65 z_1_66 z_1_67 z_1_62 z_1_63 z_1_64))))
(assert
 (let (($x1338 (= z_0_65 (and z_1_65 z_1_66 z_1_67 z_1_62 z_1_63 z_1_64))))
 (=> x_0_G $x1338)))
(assert
 (=> x_0_! (= z_0_66 (not z_1_66))))
(assert
 (let (($x1348 (= z_0_66 z_1_67)))
 (=> x_0_X $x1348)))
(assert
 (=> x_0_F (= z_0_66 (or z_1_66 z_1_67 z_1_62 z_1_63 z_1_64 z_1_65))))
(assert
 (let (($x1357 (= z_0_66 (and z_1_66 z_1_67 z_1_62 z_1_63 z_1_64 z_1_65))))
 (=> x_0_G $x1357)))
(assert
 (=> x_0_! (= z_0_67 (not z_1_67))))
(assert
 (let (($x1367 (= z_0_67 z_1_62)))
 (=> x_0_X $x1367)))
(assert
 (let (($x1371 (= z_0_67 (or z_1_67 z_0_62))))
 (=> x_0_F $x1371)))
(assert
 (let (($x1375 (= z_0_67 (and z_1_67 z_0_62))))
 (=> x_0_G $x1375)))
(assert
 (let (($x1743 (not z_3_0)))
 (= z_1_0 $x1743)))
(assert
 (= z_1_1 (not z_3_1)))
(assert
 (= z_1_2 (not z_3_2)))
(assert
 (let (($x1740 (not z_3_3)))
 (= z_1_3 $x1740)))
(assert
 (let (($x1735 (not z_3_4)))
 (= z_1_4 $x1735)))
(assert
 (let (($x5323 (not z_3_5)))
 (= z_1_5 $x5323)))
(assert
 (= z_1_6 (not z_3_6)))
(assert
 (let (($x5333 (not z_3_7)))
 (= z_1_7 $x5333)))
(assert
 (let (($x5338 (not z_3_8)))
 (= z_1_8 $x5338)))
(assert
 (let (($x5343 (not z_3_9)))
 (= z_1_9 $x5343)))
(assert
 (= z_1_10 (not z_3_10)))
(assert
 (= z_1_11 (not z_3_11)))
(assert
 (let (($x5358 (not z_3_12)))
 (= z_1_12 $x5358)))
(assert
 (= z_1_13 (not z_3_13)))
(assert
 (= z_1_14 (not z_3_14)))
(assert
 (let (($x5373 (not z_3_15)))
 (= z_1_15 $x5373)))
(assert
 (= z_1_16 (not z_3_16)))
(assert
 (= z_1_17 (not z_3_17)))
(assert
 (let (($x5388 (not z_3_18)))
 (= z_1_18 $x5388)))
(assert
 (let (($x5393 (not z_3_19)))
 (= z_1_19 $x5393)))
(assert
 (let (($x5398 (not z_3_20)))
 (= z_1_20 $x5398)))
(assert
 (let (($x5403 (not z_3_21)))
 (= z_1_21 $x5403)))
(assert
 (= z_1_22 (not z_3_22)))
(assert
 (let (($x5413 (not z_3_23)))
 (= z_1_23 $x5413)))
(assert
 (let (($x5418 (not z_3_24)))
 (= z_1_24 $x5418)))
(assert
 (= z_1_25 (not z_3_25)))
(assert
 (= z_1_26 (not z_3_26)))
(assert
 (let (($x5433 (not z_3_27)))
 (= z_1_27 $x5433)))
(assert
 (= z_1_28 (not z_3_28)))
(assert
 (let (($x5443 (not z_3_29)))
 (= z_1_29 $x5443)))
(assert
 (let (($x5448 (not z_3_30)))
 (= z_1_30 $x5448)))
(assert
 (= z_1_31 (not z_3_31)))
(assert
 (let (($x5458 (not z_3_32)))
 (= z_1_32 $x5458)))
(assert
 (let (($x5463 (not z_3_33)))
 (= z_1_33 $x5463)))
(assert
 (= z_1_34 (not z_3_34)))
(assert
 (= z_1_35 (not z_3_35)))
(assert
 (= z_1_36 (not z_3_36)))
(assert
 (= z_1_37 (not z_3_37)))
(assert
 (= z_1_38 (not z_3_38)))
(assert
 (= z_1_39 (not z_3_39)))
(assert
 (= z_1_40 (not z_3_40)))
(assert
 (let (($x5503 (not z_3_41)))
 (= z_1_41 $x5503)))
(assert
 (= z_1_42 (not z_3_42)))
(assert
 (let (($x5513 (not z_3_43)))
 (= z_1_43 $x5513)))
(assert
 (= z_1_44 (not z_3_44)))
(assert
 (let (($x5523 (not z_3_45)))
 (= z_1_45 $x5523)))
(assert
 (= z_1_46 (not z_3_46)))
(assert
 (= z_1_47 (not z_3_47)))
(assert
 (let (($x5538 (not z_3_48)))
 (= z_1_48 $x5538)))
(assert
 (= z_1_49 (not z_3_49)))
(assert
 (= z_1_50 (not z_3_50)))
(assert
 (= z_1_51 (not z_3_51)))
(assert
 (= z_1_52 (not z_3_52)))
(assert
 (= z_1_53 (not z_3_53)))
(assert
 (= z_1_54 (not z_3_54)))
(assert
 (= z_1_55 (not z_3_55)))
(assert
 (let (($x5578 (not z_3_56)))
 (= z_1_56 $x5578)))
(assert
 (= z_1_57 (not z_3_57)))
(assert
 (= z_1_58 (not z_3_58)))
(assert
 (= z_1_59 (not z_3_59)))
(assert
 (= z_1_60 (not z_3_60)))
(assert
 (let (($x5603 (not z_3_61)))
 (= z_1_61 $x5603)))
(assert
 (let (($x5608 (not z_3_62)))
 (= z_1_62 $x5608)))
(assert
 (= z_1_63 (not z_3_63)))
(assert
 (let (($x5618 (not z_3_64)))
 (= z_1_64 $x5618)))
(assert
 (= z_1_65 (not z_3_65)))
(assert
 (= z_1_66 (not z_3_66)))
(assert
 (= z_1_67 (not z_3_67)))
(assert
 (and true true))
(assert
 (let (($x1743 (not z_3_0)))
 (=> x_3_p $x1743)))
(assert
 (=> x_3_p z_3_1))
(assert
 (=> x_3_p z_3_2))
(assert
 (let (($x1740 (not z_3_3)))
 (=> x_3_p $x1740)))
(assert
 (let (($x1735 (not z_3_4)))
 (=> x_3_p $x1735)))
(assert
 (let (($x5323 (not z_3_5)))
 (=> x_3_p $x5323)))
(assert
 (=> x_3_p z_3_6))
(assert
 (let (($x5333 (not z_3_7)))
 (=> x_3_p $x5333)))
(assert
 (let (($x5338 (not z_3_8)))
 (=> x_3_p $x5338)))
(assert
 (let (($x5343 (not z_3_9)))
 (=> x_3_p $x5343)))
(assert
 (=> x_3_p z_3_10))
(assert
 (=> x_3_p z_3_11))
(assert
 (let (($x5358 (not z_3_12)))
 (=> x_3_p $x5358)))
(assert
 (=> x_3_p z_3_13))
(assert
 (=> x_3_p z_3_14))
(assert
 (let (($x5373 (not z_3_15)))
 (=> x_3_p $x5373)))
(assert
 (=> x_3_p z_3_16))
(assert
 (=> x_3_p z_3_17))
(assert
 (let (($x5388 (not z_3_18)))
 (=> x_3_p $x5388)))
(assert
 (let (($x5393 (not z_3_19)))
 (=> x_3_p $x5393)))
(assert
 (let (($x5398 (not z_3_20)))
 (=> x_3_p $x5398)))
(assert
 (let (($x5403 (not z_3_21)))
 (=> x_3_p $x5403)))
(assert
 (=> x_3_p z_3_22))
(assert
 (let (($x5413 (not z_3_23)))
 (=> x_3_p $x5413)))
(assert
 (let (($x5418 (not z_3_24)))
 (=> x_3_p $x5418)))
(assert
 (=> x_3_p z_3_25))
(assert
 (=> x_3_p z_3_26))
(assert
 (let (($x5433 (not z_3_27)))
 (=> x_3_p $x5433)))
(assert
 (=> x_3_p z_3_28))
(assert
 (let (($x5443 (not z_3_29)))
 (=> x_3_p $x5443)))
(assert
 (let (($x5448 (not z_3_30)))
 (=> x_3_p $x5448)))
(assert
 (=> x_3_p z_3_31))
(assert
 (let (($x5458 (not z_3_32)))
 (=> x_3_p $x5458)))
(assert
 (let (($x5463 (not z_3_33)))
 (=> x_3_p $x5463)))
(assert
 (=> x_3_p z_3_34))
(assert
 (=> x_3_p z_3_35))
(assert
 (=> x_3_p z_3_36))
(assert
 (=> x_3_p z_3_37))
(assert
 (=> x_3_p z_3_38))
(assert
 (=> x_3_p z_3_39))
(assert
 (=> x_3_p z_3_40))
(assert
 (let (($x5503 (not z_3_41)))
 (=> x_3_p $x5503)))
(assert
 (=> x_3_p z_3_42))
(assert
 (let (($x5513 (not z_3_43)))
 (=> x_3_p $x5513)))
(assert
 (=> x_3_p z_3_44))
(assert
 (let (($x5523 (not z_3_45)))
 (=> x_3_p $x5523)))
(assert
 (=> x_3_p z_3_46))
(assert
 (=> x_3_p z_3_47))
(assert
 (let (($x5538 (not z_3_48)))
 (=> x_3_p $x5538)))
(assert
 (=> x_3_p z_3_49))
(assert
 (=> x_3_p z_3_50))
(assert
 (=> x_3_p z_3_51))
(assert
 (=> x_3_p z_3_52))
(assert
 (=> x_3_p z_3_53))
(assert
 (=> x_3_p z_3_54))
(assert
 (=> x_3_p z_3_55))
(assert
 (let (($x5578 (not z_3_56)))
 (=> x_3_p $x5578)))
(assert
 (=> x_3_p z_3_57))
(assert
 (=> x_3_p z_3_58))
(assert
 (=> x_3_p z_3_59))
(assert
 (=> x_3_p z_3_60))
(assert
 (let (($x5603 (not z_3_61)))
 (=> x_3_p $x5603)))
(assert
 (let (($x5608 (not z_3_62)))
 (=> x_3_p $x5608)))
(assert
 (=> x_3_p z_3_63))
(assert
 (let (($x5618 (not z_3_64)))
 (=> x_3_p $x5618)))
(assert
 (=> x_3_p z_3_65))
(assert
 (=> x_3_p z_3_66))
(assert
 (=> x_3_p z_3_67))
(assert
 (or x_3_p))
(assert
 (let (($x5655 (not x_3_->)))
 (let (($x5653 (not x_3_U)))
 (let (($x5651 (not x_3_v)))
 (let (($x5649 (not x_3_&)))
 (let (($x5647 (not x_3_X)))
 (let (($x5645 (not x_3_!)))
 (let (($x5643 (not x_3_F)))
 (let (($x5641 (not x_3_G)))
 (and $x5641 $x5643 $x5645 $x5647 $x5649 $x5651 $x5653 $x5655))))))))))
(check-sat)

